1 1 2 0
1 3 -4 0
1 -3 5 0
1 -3 6 0
1 -5 -7 0
1 -5 8 0
1 6 -9 0
1 -6 -10 0
1 -6 3 0
1 2 5 0
1 2 11 0
1 2 -12 0
1 -2 -1 0
1 13 14 0
1 -13 -15 0
1 -16 -14 0
1 16 -13 0
1 16 -17 0
1 18 4 0
1 18 -17 0
1 10 -6 0
1 19 -20 0
1 19 -9 0
1 19 6 0
1 19 -15 0
1 -9 -21 0
1 9 8 0
1 -9 -22 0
1 8 -23 0
1 -8 -24 0
1 20 25 0
1 26 9 0
1 26 -27 0
1 -4 -28 0
1 4 10 0
1 4 -26 0
1 -4 -19 0
1 -25 8 0
1 25 12 0
1 -29 30 0
1 -29 -31 0
1 -32 -33 0
1 34 -33 0
1 -34 8 0
1 -22 -29 0
1 -22 -9 0
1 22 33 0
1 -33 -35 0
1 33 32 0
1 -30 35 0
1 -30 -36 0
1 -37 38 0
1 37 -39 0
1 40 -41 0
1 -42 43 0
1 7 -44 0
1 7 5 0
1 -39 21 0
1 -39 37 0
1 43 15 0
1 43 42 0
1 43 -37 0
1 38 45 0
1 -46 47 0
1 46 48 0
1 17 -39 0
1 17 49 0
1 14 -39 0
1 -14 -10 0
1 -14 49 0
1 14 17 0
1 -15 -21 0
1 -21 50 0
1 -21 51 0
1 52 -53 0
1 -49 54 0
1 49 55 0
1 49 52 0
1 -44 56 0
1 -44 17 0
1 57 53 0
1 -57 44 0
1 57 -58 0
1 -57 -56 0
1 57 45 0
1 57 17 0
1 57 42 0
1 -12 -55 0
1 -12 -26 0
1 -12 51 0
1 -12 59 0
1 12 16 0
1 -55 4 0
1 55 -60 0
1 55 61 0
1 -55 -49 0
1 62 60 0
1 -62 -63 0
1 -62 -64 0
1 54 -62 0
1 61 -55 0
1 -59 54 0
1 60 53 0
1 60 65 0
1 -60 66 0
1 -51 -53 0
1 51 -21 0
1 51 -58 0
1 -67 30 0
1 67 -61 0
1 -67 58 0
1 -67 -64 0
1 24 -20 0
1 -24 -63 0
1 24 67 0
1 -68 -69 0
1 -68 28 0
1 -68 30 0
1 -68 -31 0
1 -68 -70 0
1 70 68 0
1 -70 63 0
1 70 -64 0
1 70 -66 0
1 64 -35 0
1 64 71 0
1 69 -35 0
1 69 2 0
1 63 65 0
1 63 72 0
1 -63 -73 0
1 -74 -54 0
1 -74 -63 0
1 35 -28 0
1 -35 -65 0
1 -35 -64 0
1 36 -23 0
1 75 76 0
1 -75 -23 0
1 -71 -28 0
1 71 76 0
1 -71 77 0
1 -71 27 0
1 23 -78 0
1 23 -79 0
1 23 71 0
1 -80 81 0
1 80 75 0
1 80 79 0
1 -27 28 0
1 27 -82 0
1 27 70 0
1 -28 -81 0
1 28 35 0
1 -28 36 0
1 -28 -70 0
1 78 -23 0
1 -83 -80 0
1 -83 -78 0
1 83 -84 0
1 -83 72 0
1 -83 -85 0
1 86 87 0
1 -86 -84 0
1 -86 -85 0
1 79 80 0
1 85 -88 0
1 -85 71 0
1 -77 83 0
1 -77 -71 0
1 -84 -81 0
1 84 -86 0
1 76 -81 0
1 76 -75 0
1 -76 -83 0
1 89 -90 0
1 -89 -91 0
1 -89 92 0
1 -41 40 0
1 -93 94 0
1 -93 91 0
1 93 -95 0
1 -96 -97 0
1 -97 -50 0
1 97 -96 0
1 97 98 0
1 97 -93 0
1 90 99 0
1 -90 -93 0
1 -91 -100 0
1 -94 101 0
1 -102 -103 0
1 102 -95 0
1 -103 38 0
1 103 97 0
1 48 -104 0
1 48 -38 0
1 48 50 0
1 -48 -46 0
1 -48 15 0
1 50 104 0
1 50 38 0
1 50 97 0
1 -50 -105 0
1 -50 -106 0
1 -50 107 0
1 50 -108 0
1 -95 47 0
1 -95 96 0
1 -95 56 0
1 95 48 0
1 -95 102 0
1 -109 -95 0
1 -107 110 0
1 -107 -111 0
1 107 93 0
1 112 -99 0
1 112 -102 0
1 45 -104 0
1 -45 -39 0
1 -45 113 0
1 -47 109 0
1 -47 -106 0
1 47 43 0
1 47 45 0
1 -56 -114 0
1 114 115 0
1 104 -56 0
1 -106 50 0
1 106 116 0
1 -106 -48 0
1 -108 -114 0
1 108 113 0
1 108 117 0
1 -108 -48 0
1 -113 50 0
1 113 118 0
1 -58 -52 0
1 -58 119 0
1 -116 -120 0
1 -66 106 0
1 -66 -121 0
1 -115 53 0
1 -115 116 0
1 115 -122 0
1 119 53 0
1 119 -123 0
1 119 66 0
1 -124 114 0
1 120 -58 0
1 120 46 0
1 120 125 0
1 -120 126 0
1 65 115 0
1 65 127 0
1 65 122 0
1 122 -128 0
1 -122 63 0
1 122 -129 0
1 -122 -51 0
1 123 -130 0
1 -123 128 0
1 123 -131 0
1 -73 -119 0
1 -132 87 0
1 -132 66 0
1 121 66 0
1 -128 -133 0
1 128 -134 0
1 -128 -135 0
1 128 -122 0
1 128 -66 0
1 129 116 0
1 129 135 0
1 136 134 0
1 136 -130 0
1 -72 63 0
1 -72 -121 0
1 72 -135 0
1 -72 -130 0
1 87 -132 0
1 137 -132 0
1 -137 -138 0
1 139 -140 0
1 139 -81 0
1 139 87 0
1 139 -136 0
1 -139 137 0
1 -141 -142 0
1 141 -140 0
1 141 81 0
1 -141 -123 0
1 141 -139 0
1 -143 -133 0
1 -143 136 0
1 -143 144 0
1 -130 -145 0
1 81 -76 0
1 81 146 0
1 -81 84 0
1 146 23 0
1 140 -147 0
1 140 82 0
1 140 141 0
1 148 -149 0
1 -148 -150 0
1 -151 64 0
1 152 153 0
1 152 -148 0
1 -152 -137 0
1 154 -140 0
1 -154 -87 0
1 154 -155 0
1 -154 63 0
1 -154 -146 0
1 150 74 0
1 -156 -77 0
1 -156 84 0
1 156 85 0
1 -88 156 0
1 -88 85 0
1 -157 -82 0
1 -158 -159 0
1 -158 160 0
1 149 -147 0
1 -149 161 0
1 149 157 0
1 147 162 0
1 147 88 0
1 -147 163 0
1 82 140 0
1 -159 28 0
1 -159 -164 0
1 165 -166 0
1 165 162 0
1 -162 -149 0
1 162 -167 0
1 -163 -166 0
1 -163 168 0
1 -168 169 0
1 168 -170 0
1 167 -158 0
1 160 -167 0
1 -160 -158 0
1 -160 165 0
1 -170 162 0
1 166 171 0
1 166 158 0
1 166 165 0
1 92 172 0
1 173 -174 0
1 -175 -176 0
1 -175 177 0
1 -178 179 0
1 -178 180 0
1 174 -105 0
1 172 105 0
1 172 101 0
1 181 173 0
1 181 92 0
1 177 -92 0
1 100 102 0
1 101 172 0
1 -101 182 0
1 183 94 0
1 183 174 0
1 -183 -48 0
1 -183 -182 0
1 105 -94 0
1 -105 -50 0
1 105 184 0
1 -105 -172 0
1 176 -178 0
1 176 -183 0
1 -176 100 0
1 180 -185 0
1 -180 101 0
1 -180 -186 0
1 -180 98 0
1 180 -183 0
1 180 175 0
1 -179 -101 0
1 -182 185 0
1 98 -187 0
1 -98 97 0
1 98 91 0
1 99 188 0
1 -99 -112 0
1 99 -176 0
1 -186 112 0
1 -186 184 0
1 -186 -180 0
1 -189 114 0
1 -189 -184 0
1 189 190 0
1 189 107 0
1 -189 180 0
1 184 110 0
1 -184 117 0
1 -187 105 0
1 187 191 0
1 -187 -184 0
1 -192 99 0
1 192 -105 0
1 -192 183 0
1 -188 -193 0
1 188 -194 0
1 188 -195 0
1 117 113 0
1 110 117 0
1 110 -184 0
1 -191 187 0
1 191 196 0
1 191 197 0
1 -198 -196 0
1 -198 -113 0
1 198 111 0
1 198 199 0
1 -190 200 0
1 190 97 0
1 201 -202 0
1 201 200 0
1 201 191 0
1 201 -190 0
1 -201 126 0
1 -203 94 0
1 -203 117 0
1 203 186 0
1 203 204 0
1 -127 -104 0
1 -127 205 0
1 -127 190 0
1 -127 -108 0
1 -206 104 0
1 206 113 0
1 206 127 0
1 206 207 0
1 -131 124 0
1 -131 118 0
1 -131 208 0
1 -131 111 0
1 131 190 0
1 126 111 0
1 126 209 0
1 -199 210 0
1 199 -131 0
1 -199 -205 0
1 199 -126 0
1 -205 211 0
1 205 127 0
1 111 -126 0
1 -111 -212 0
1 -196 -111 0
1 -196 126 0
1 196 -198 0
1 -134 213 0
1 -135 115 0
1 135 -208 0
1 -138 -137 0
1 138 -214 0
1 208 -211 0
1 208 134 0
1 -208 144 0
1 -213 134 0
1 213 -215 0
1 -213 216 0
1 118 217 0
1 -118 -218 0
1 118 210 0
1 118 131 0
1 118 113 0
1 118 219 0
1 -118 -215 0
1 -118 216 0
1 -118 126 0
1 -133 210 0
1 133 -143 0
1 -133 121 0
1 -145 220 0
1 145 140 0
1 145 221 0
1 145 222 0
1 -144 145 0
1 144 -143 0
1 -144 -125 0
1 -223 -144 0
1 223 -224 0
1 -224 -225 0
1 -224 -119 0
1 224 -226 0
1 -224 227 0
1 228 -124 0
1 -125 229 0
1 -125 228 0
1 -125 -211 0
1 -125 138 0
1 -142 217 0
1 142 223 0
1 142 230 0
1 142 222 0
1 -142 130 0
1 230 231 0
1 230 -141 0
1 -230 -150 0
1 227 223 0
1 -227 221 0
1 227 -224 0
1 227 -150 0
1 -225 232 0
1 225 233 0
1 -221 155 0
1 221 -225 0
1 221 -144 0
1 -221 234 0
1 222 -145 0
1 222 235 0
1 -236 -142 0
1 236 128 0
1 236 -237 0
1 236 238 0
1 -236 225 0
1 236 144 0
1 -231 -239 0
1 -231 -225 0
1 -231 234 0
1 235 -159 0
1 -235 82 0
1 235 -240 0
1 155 221 0
1 -155 241 0
1 -164 159 0
1 164 232 0
1 164 -233 0
1 -164 -82 0
1 -164 163 0
1 164 -240 0
1 169 242 0
1 -233 243 0
1 -233 240 0
1 233 -227 0
1 240 -171 0
1 -240 -161 0
1 232 244 0
1 232 245 0
1 246 247 0
1 -246 169 0
1 246 155 0
1 -246 -245 0
1 -246 -248 0
1 161 -153 0
1 -161 249 0
1 171 -250 0
1 171 -149 0
1 171 170 0
1 -243 251 0
1 -243 166 0
1 -252 -249 0
1 -252 243 0
1 -249 -252 0
1 -249 161 0
1 -153 -253 0
1 -153 -152 0
1 -153 249 0
1 -153 -243 0
1 -250 242 0
1 -250 171 0
1 -250 169 0
1 -250 243 0
1 250 -164 0
1 -242 -253 0
1 -242 252 0
1 -242 245 0
1 242 161 0
1 -254 -153 0
1 -254 -255 0
1 -254 -170 0
1 -256 249 0
1 -256 -254 0
1 -257 258 0
1 257 -255 0
1 -259 -258 0
1 -259 -260 0
1 -259 -261 0
1 260 -252 0
1 -260 262 0
1 -260 -254 0
1 263 259 0
1 255 259 0
1 -255 252 0
1 255 -254 0
1 251 257 0
1 251 -243 0
1 -262 -263 0
1 262 -260 0
1 -262 261 0
1 -264 253 0
1 264 -258 0
1 264 262 0
1 -264 265 0
1 -266 263 0
1 266 261 0
1 -266 267 0
1 -267 268 0
1 258 262 0
1 265 -262 0
1 -265 -170 0
1 -269 259 0
1 269 -262 0
1 269 -257 0
1 195 270 0
1 -195 192 0
1 195 182 0
1 -271 -188 0
1 -271 -270 0
1 271 191 0
1 193 272 0
1 193 -273 0
1 274 275 0
1 -276 -274 0
1 276 277 0
1 276 -207 0
1 -270 -185 0
1 -270 -278 0
1 278 -185 0
1 277 192 0
1 -277 184 0
1 277 197 0
1 277 207 0
1 -207 -279 0
1 -207 -272 0
1 207 192 0
1 280 -279 0
1 -280 -272 0
1 -209 281 0
1 -209 -280 0
1 209 -274 0
1 209 -273 0
1 -272 -282 0
1 -272 -283 0
1 272 209 0
1 -282 284 0
1 -279 284 0
1 279 -273 0
1 -279 280 0
1 -279 179 0
1 -279 207 0
1 -273 193 0
1 -273 284 0
1 273 285 0
1 200 272 0
1 -200 286 0
1 -200 -197 0
1 204 194 0
1 204 281 0
1 204 203 0
1 -204 -287 0
1 -283 282 0
1 -283 -272 0
1 283 -286 0
1 -283 111 0
1 214 -272 0
1 214 111 0
1 287 204 0
1 -287 -209 0
1 281 187 0
1 281 -200 0
1 286 288 0
1 194 289 0
1 -194 -284 0
1 194 283 0
1 194 204 0
1 210 133 0
1 210 -205 0
1 290 210 0
1 290 202 0
1 -290 118 0
1 -290 -199 0
1 -218 -291 0
1 -218 292 0
1 -216 293 0
1 -216 294 0
1 216 -295 0
1 292 216 0
1 292 296 0
1 202 -210 0
1 202 -214 0
1 -295 -297 0
1 -295 210 0
1 -295 -293 0
1 295 290 0
1 -293 -218 0
1 -293 -295 0
1 293 214 0
1 -217 220 0
1 -217 -291 0
1 -217 -208 0
1 215 -118 0
1 -215 292 0
1 -229 -219 0
1 229 298 0
1 -229 212 0
1 299 -300 0
1 299 294 0
1 299 291 0
1 299 212 0
1 301 302 0
1 301 239 0
1 301 -299 0
1 -301 199 0
1 291 -239 0
1 291 303 0
1 -291 299 0
1 212 217 0
1 -212 -218 0
1 212 -216 0
1 294 229 0
1 294 215 0
1 -294 216 0
1 -294 304 0
1 -305 -306 0
1 -305 -236 0
1 -305 307 0
1 239 169 0
1 -239 -308 0
1 -239 291 0
1 239 219 0
1 -239 -298 0
1 239 226 0
1 -239 231 0
1 300 229 0
1 300 -299 0
1 -300 -298 0
1 300 -305 0
1 -298 -309 0
1 -298 -310 0
1 311 229 0
1 -219 -229 0
1 219 309 0
1 219 305 0
1 234 -161 0
1 -237 -300 0
1 248 300 0
1 -248 298 0
1 248 -312 0
1 248 -313 0
1 -314 -306 0
1 -314 -238 0
1 -314 315 0
1 314 246 0
1 -306 314 0
1 306 223 0
1 306 -234 0
1 -226 -316 0
1 -226 -306 0
1 -226 -237 0
1 226 317 0
1 -226 -224 0
1 -318 319 0
1 -318 -309 0
1 318 -320 0
1 -307 -319 0
1 307 -237 0
1 307 -305 0
1 245 -242 0
1 -245 -247 0
1 245 -238 0
1 -245 -313 0
1 -245 321 0
1 -247 -238 0
1 -247 315 0
1 -247 -250 0
1 -317 238 0
1 -317 -315 0
1 -317 322 0
1 -316 242 0
1 316 -306 0
1 316 -323 0
1 -316 226 0
1 -315 -324 0
1 238 -316 0
1 -238 -320 0
1 -313 -325 0
1 -324 -244 0
1 324 249 0
1 253 319 0
1 253 324 0
1 -326 315 0
1 -268 -315 0
1 -268 325 0
1 -323 253 0
1 -323 233 0
1 323 -322 0
1 322 323 0
1 244 232 0
1 244 327 0
1 -327 -246 0
1 327 268 0
1 284 -328 0
1 284 275 0
1 284 -279 0
1 -284 -329 0
1 -329 -282 0
1 329 272 0
1 329 290 0
1 -329 330 0
1 329 -331 0
1 288 332 0
1 288 330 0
1 333 -288 0
1 333 286 0
1 -275 334 0
1 328 -329 0
1 330 284 0
1 330 333 0
1 -297 194 0
1 -297 275 0
1 297 335 0
1 335 194 0
1 335 297 0
1 -335 281 0
1 -334 336 0
1 337 334 0
1 -337 -336 0
1 -337 -299 0
1 -337 338 0
1 337 -332 0
1 -337 285 0
1 -332 -334 0
1 332 339 0
1 332 308 0
1 332 340 0
1 332 -272 0
1 332 -341 0
1 -336 282 0
1 -336 -334 0
1 336 -288 0
1 -336 -308 0
1 -336 -335 0
1 336 -333 0
1 -336 -342 0
1 338 297 0
1 338 -288 0
1 338 -337 0
1 338 -279 0
1 338 335 0
1 -338 -343 0
1 342 295 0
1 -340 332 0
1 340 -292 0
1 341 336 0
1 -341 344 0
1 341 294 0
1 -341 -305 0
1 -308 345 0
1 -308 -296 0
1 -308 212 0
1 346 334 0
1 347 289 0
1 -347 -343 0
1 347 -342 0
1 -289 334 0
1 -289 347 0
1 289 348 0
1 -289 -343 0
1 304 -311 0
1 -304 344 0
1 304 294 0
1 -304 296 0
1 -304 -343 0
1 -304 -212 0
1 302 237 0
1 302 349 0
1 -302 339 0
1 -302 219 0
1 -302 -346 0
1 -312 -345 0
1 -312 350 0
1 312 -303 0
1 312 219 0
1 350 -314 0
1 350 -219 0
1 -350 312 0
1 -296 -351 0
1 296 -344 0
1 296 -341 0
1 -344 -309 0
1 -344 350 0
1 344 -352 0
1 344 -341 0
1 -353 354 0
1 353 -302 0
1 349 354 0
1 349 308 0
1 -355 -300 0
1 355 -309 0
1 -355 -298 0
1 355 -356 0
1 -309 318 0
1 309 303 0
1 309 356 0
1 -352 310 0
1 -351 357 0
1 -351 307 0
1 351 -352 0
1 351 -356 0
1 356 350 0
1 356 358 0
1 356 312 0
1 -356 -301 0
1 -303 -320 0
1 303 -312 0
1 359 -360 0
1 359 -352 0
1 -361 350 0
1 361 359 0
1 320 306 0
1 -320 -324 0
1 358 -313 0
1 -325 -268 0
1 -362 300 0
1 362 -358 0
1 362 320 0
1 310 362 0
1 310 352 0
1 -357 -319 0
1 357 363 0
1 -357 320 0
1 343 -364 0
1 339 -289 0
1 339 -365 0
1 366 367 0
1 366 -368 0
1 366 -365 0
1 367 369 0
1 -367 370 0
1 -367 -371 0
1 -370 366 0
1 -364 -367 0
1 364 328 0
1 364 -366 0
1 372 330 0
1 -348 -368 0
1 348 365 0
1 -354 370 0
1 354 -368 0
1 -354 -347 0
1 -373 374 0
1 -373 -349 0
1 375 371 0
1 375 368 0
1 375 353 0
1 -368 -376 0
1 368 373 0
1 368 348 0
1 -377 378 0
1 377 -373 0
1 371 375 0
1 369 -375 0
1 -369 -373 0
1 369 285 0
1 379 344 0
1 -379 361 0
1 379 -320 0
1 379 296 0
1 -376 319 0
1 -376 380 0
1 -376 -361 0
1 -376 -379 0
1 376 381 0
1 360 -382 0
1 -378 -368 0
1 382 380 0
1 -380 345 0
1 -381 -347 0
1 374 360 0
